NAME : local_3
TYPE : ATSP
DIMENSION : 19
EDGE_WEIGHT_TYPE : EXPLICIT
EDGE_WEIGHT_FORMAT : FULL_MATRIX
EDGE_WEIGHT_SECTION
0 376 10000000 10000000 10000000 820 10000000 382 749 238 10000000 647 10000000 10000000 10000000 690 10000000 10000000 738 
0 0 10000000 10000000 10000000 10000000 10000000 192 852 150 10000000 977 10000000 10000000 10000000 822 10000000 10000000 813 
0 10000000 0 723 10000000 10000000 332 10000000 10000000 10000000 10000000 10000000 10000000 10000000 981 10000000 626 412 10000000 
0 10000000 723 0 10000000 10000000 617 10000000 860 10000000 10000000 10000000 621 565 297 914 272 428 819 
0 10000000 10000000 10000000 0 280 10000000 10000000 702 10000000 141 470 10000000 10000000 10000000 664 10000000 10000000 762 
0 10000000 10000000 10000000 280 0 10000000 10000000 630 982 286 208 10000000 10000000 10000000 568 10000000 10000000 681 
0 10000000 332 617 10000000 10000000 0 10000000 10000000 10000000 10000000 10000000 901 937 832 10000000 413 293 10000000 
0 192 10000000 10000000 10000000 10000000 10000000 0 969 246 10000000 10000000 10000000 10000000 10000000 934 10000000 10000000 930 
0 852 10000000 860 702 630 10000000 969 0 748 818 616 10000000 10000000 10000000 102 911 870 150 
0 150 10000000 10000000 10000000 982 10000000 246 748 0 10000000 826 10000000 10000000 10000000 709 10000000 10000000 717 
0 10000000 10000000 10000000 141 286 10000000 10000000 818 10000000 0 474 10000000 10000000 10000000 772 10000000 10000000 876 
0 977 10000000 10000000 470 208 10000000 10000000 616 826 474 0 10000000 10000000 10000000 540 10000000 10000000 664 
0 10000000 10000000 621 10000000 10000000 901 10000000 10000000 10000000 10000000 10000000 0 172 440 10000000 574 854 10000000 
0 10000000 10000000 565 10000000 10000000 937 10000000 10000000 10000000 10000000 10000000 172 0 322 10000000 592 871 10000000 
0 10000000 981 297 10000000 10000000 832 10000000 10000000 10000000 10000000 10000000 440 322 0 10000000 459 697 10000000 
0 822 10000000 914 664 568 10000000 934 102 709 772 540 10000000 10000000 10000000 0 968 940 138 
0 10000000 626 272 10000000 10000000 413 10000000 919 10000000 10000000 10000000 574 592 459 948 0 281 878 
0 10000000 412 428 10000000 10000000 293 10000000 893 10000000 10000000 10000000 854 871 697 933 281 0 824 
0 10000000 10000000 10000000 10000000 10000000 10000000 10000000 10000000 10000000 10000000 10000000 10000000 10000000 10000000 10000000 10000000 10000000 0 
EOF